min: 2 M y2p + 3 M y3p;

5 x1 + 3 x2 + 4 x3 + y2n - y2p = 40;
5 x1 + 7 x2 + 8 x3 + + y3n - y3p = 55;
x1 >= 0;
x2 >= 0;
x3 >= 0;
y1p >= 0;
y2p >= 0;
y3p >= 0;
y1n >= 0;
y2n >= 0;
y3n >= 0;




